unsat
(:SPACER-conj                         1
 :SPACER-inductive-gen                24
 :SPACER-inductive-gen-weaken-fail    24
 :SPACER-inductive-level              10
 :SPACER-max-depth                    12
 :SPACER-max-query-lvl                12
 :SPACER-non-local-gen                24
 :SPACER-num-active-lemmas            15
 :SPACER-num-ctp-blocked              31
 :SPACER-num-invariants               9
 :SPACER-num-is_invariant             73
 :SPACER-num-lemmas                   61
 :SPACER-num-pobs                     21
 :SPACER-num-propagations             16
 :SPACER-num-queries                  43
 :SPACER-subsume-failed               1
 :SPACER-subsume-pob                  2
 :SPACER-subsume-success              2
 :added-eqs                           4328
 :arith-assert-diseq                  538
 :arith-assert-lower                  5896
 :arith-assert-upper                  7390
 :arith-bound-prop                    316
 :arith-conflicts                     68
 :arith-eq-adapter                    986
 :arith-fixed-eqs                     702
 :arith-num-rows                      52
 :arith-offset-eqs                    48
 :arith-pivots                        364
 :arith-row-summations                830
 :arith-tableau-max-columns           130
 :arith-tableau-max-rows              52
 :conflicts                           534
 :decisions                           4460
 :del-clause                          1024
 :final-checks                        142
 :iuc_solver.num_proxies              74
 :max-memory                          32.35
 :memory                              31.82
 :minimized-lits                      34
 :mk-bool-var                         3820
 :mk-clause                           2170
 :num-allocs                          39940754
 :num-checks                          504
 :pool_solver.checks                  252
 :pool_solver.checks.sat              71
 :propagations                        25526
 :rlimit-count                        161963
 :time                                0.19
 :time.iuc_solver.get_iuc             0.03
 :time.iuc_solver.get_iuc.hyp_reduce1 0.01
 :time.iuc_solver.get_iuc.hyp_reduce2 0.01
 :time.iuc_solver.get_iuc.learn_core  0.01
 :time.pool_solver.proof              0.01
 :time.pool_solver.smt.total          0.05
 :time.pool_solver.smt.total.sat      0.02
 :time.spacer.ctp                     0.00
 :time.spacer.init_rules              0.00
 :time.spacer.mbp                     0.01
 :time.spacer.solve                   0.17
 :time.spacer.solve.propagate         0.02
 :time.spacer.solve.reach             0.15
 :time.spacer.solve.reach.children    0.02
 :time.spacer.solve.reach.cluster     0.02
 :time.spacer.solve.reach.gen.global  0.02
 :time.spacer.solve.reach.gen.ind     0.00)
(:max-memory   32.35
 :memory       31.82
 :num-allocs   39940754
 :rlimit-count 161963
 :time         0.19
 :total-time   0.20)
